p edge 40 39
e 1 38
e 1 11
e 2 5
e 2 3
e 2 34
e 2 36
e 3 24
e 4 8
e 6 20
e 6 26
e 6 7
e 6 25
e 7 9
e 7 22
e 8 18
e 9 17
e 10 18
e 10 14
e 11 28
e 12 16
e 13 36
e 13 35
e 14 30
e 14 22
e 15 16
e 15 31
e 15 27
e 15 29
e 18 37
e 18 39
e 19 35
e 21 38
e 22 28
e 23 28
e 25 40
e 27 35
e 29 38
e 32 33
e 33 39
